89 89
9 51
32 78
37 39
7 72
14 15
41 16
5 25
11 36
31 62
44 24
9 79
13 84
29 65
20 49
43 70
12 11
1 34
4 55
36 6
3 75
6 83
40 5
21 4
42 7
37 77
26 23
38 12
39 89
28 14
12 88
29 48
2 58
2 31
1 1
7 67
16 17
19 10
28 35
17 30
25 9
40 20
1 19
6 13
38 85
18 38
11 53
3 47
14 60
35 33
8 87
34 66
17 59
19 3
16 57
34 43
30 81
33 32
41 74
10 54
31 28
23 8
32 63
24 69
39 41
5 64
42 61
43 50
24 2
10 37
22 44
21 76
4 42
15 82
33 45
30 40
13 22
15 27
20 52
18 26
35 71
8 86
25 21
36 46
26 18
23 73
27 29
44 56
27 68
22 80
